n = 18;

R =
[|0,0,0,3,0,0,0,0,0,0,0,0,0,0,0,0,0,0,
 |0,0,0,3,0,0,0,0,0,4,4,4,4,0,3,3,3,0,
 |0,0,0,3,0,0,0,0,0,0,1,0,0,0,0,0,0,0,
 |6,6,6,6,6,6,0,0,0,0,0,4,4,4,4,0,2,0,
 |8,8,8,8,8,8,8,8,0,9,0,0,3,3,3,0,2,0,
 |9,0,0,0,0,1,0,0,0,9,0,3,3,3,0,0,0,0,
 |9,0,0,0,0,4,4,4,4,9,0,0,0,4,4,4,4,0,
 |9,3,3,3,7,0,0,0,0,9,0,0,5,5,5,5,5,0,
 |9,0,0,0,7,0,0,0,0,9,0,1,0,0,0,0,1,0,
 |9,0,2,0,7,0,0,0,0,9,4,1,0,0,0,0,0,0,
 |9,0,2,3,7,0,0,0,0,9,4,0,0,0,0,0,0,0,
 |9,1,0,3,7,0,2,2,0,9,4,0,0,0,3,3,3,0,
 |9,0,0,3,7,0,0,0,0,9,4,0,4,4,4,4,0,3,
 |9,0,0,0,7,9,9,9,9,9,9,9,9,9,0,0,0,3,
 |0,0,0,0,0,0,0,0,4,4,4,4,0,1,0,0,0,3,
 |8,8,8,8,8,8,8,8,0,0,0,4,4,4,4,0,0,0,
 |0,0,0,0,0,0,0,0,0,0,0,0,0,0,0,1,0,0,
 |0,0,0,0,0,3,3,3,0,0,0,0,0,0,0,0,0,0,
 |];

